NAME : local_7
TYPE : ATSP
DIMENSION : 15
EDGE_WEIGHT_TYPE : EXPLICIT
EDGE_WEIGHT_FORMAT : FULL_MATRIX
EDGE_WEIGHT_SECTION
0 868 979 802 10000000 10000000 951 10000000 782 10000000 818 775 10000000 10000000 734 
0 0 214 485 601 10000000 10000000 10000000 10000000 10000000 981 899 10000000 10000000 860 
0 214 0 648 404 10000000 10000000 10000000 982 10000000 10000000 837 10000000 10000000 984 
0 485 648 0 1020 10000000 10000000 10000000 10000000 10000000 605 10000000 10000000 867 551 
0 601 404 1016 0 10000000 10000000 880 861 995 10000000 703 10000000 10000000 1033 
0 10000000 10000000 10000000 10000000 0 10000000 405 505 155 10000000 506 10000000 10000000 10000000 
0 10000000 10000000 10000000 10000000 10000000 0 10000000 10000000 10000000 590 10000000 884 568 652 
0 10000000 10000000 10000000 880 405 10000000 0 690 251 10000000 568 744 937 926 
0 10000000 982 10000000 861 505 10000000 690 0 544 10000000 209 10000000 10000000 10000000 
0 10000000 10000000 10000000 995 155 10000000 251 544 0 10000000 490 992 10000000 10000000 
0 981 10000000 605 10000000 10000000 590 10000000 10000000 10000000 0 10000000 891 355 241 
0 899 837 10000000 703 506 10000000 568 209 490 10000000 0 10000000 10000000 933 
0 10000000 10000000 10000000 10000000 10000000 884 744 10000000 972 891 10000000 0 543 823 
0 10000000 10000000 867 10000000 10000000 568 937 10000000 10000000 355 10000000 543 0 372 
0 10000000 10000000 10000000 10000000 10000000 10000000 10000000 10000000 10000000 10000000 10000000 10000000 10000000 0 
EOF